57 15 22 30 94 31 24 55 77 73 52 20 43 83 64 3 88 86 70 1 49 72 12 80 11 21 16 96 5 67 35 84 0 46 44 69 28 81 27 78 9 33 74 14 63 60 92 48 26 2 65 13 39 17 42 38 6 32 93 56 66 34 50 71 51 41 10 98 87 82 99 36 54 89 97 95 53 76 62 68 8 61 18 7 90 91 47 19 58 45 25 85 23 29 40 4 59 79 37 75 

